Route 1: 28 27 21 40 26 13
Route 2: 31 7 18 6 37 17
Route 3: 33 12 29 3 50 1
Route 4: 5 45 8 46 48
Route 5: 39 23 34 24
Route 6: 47 36 19 49 10 32
Route 7: 11 30 9 20 35
Route 8: 2 15 41 22 4 25
Route 9: 42 14 44 16 38 43
Vehicles: 9
Distance: 1009.57
